certificates/rado_a15_c57_N37.cnf
c Rad2 upper bound instance: x1 + 15*x2 - x3 = 57, interval [1,37]
p cnf 37 184
1 4 0
-1 -4 0
1 5 19 0
-1 -5 -19 0
1 6 34 0
-1 -6 -34 0
2 4 5 0
-2 -4 -5 0
2 5 20 0
-2 -5 -20 0
2 6 35 0
-2 -6 -35 0
3 4 6 0
-3 -4 -6 0
3 5 21 0
-3 -5 -21 0
3 6 36 0
-3 -6 -36 0
4 7 0
-4 -7 0
4 5 22 0
-4 -5 -22 0
4 6 37 0
-4 -6 -37 0
4 5 8 0
-4 -5 -8 0
5 23 0
-5 -23 0
4 6 9 0
-4 -6 -9 0
5 6 24 0
-5 -6 -24 0
4 7 10 0
-4 -7 -10 0
5 7 25 0
-5 -7 -25 0
4 8 11 0
-4 -8 -11 0
5 8 26 0
-5 -8 -26 0
4 9 12 0
-4 -9 -12 0
5 9 27 0
-5 -9 -27 0
4 10 13 0
-4 -10 -13 0
5 10 28 0
-5 -10 -28 0
4 11 14 0
-4 -11 -14 0
5 11 29 0
-5 -11 -29 0
4 12 15 0
-4 -12 -15 0
5 12 30 0
-5 -12 -30 0
1 3 13 0
-1 -3 -13 0
4 13 16 0
-4 -13 -16 0
5 13 31 0
-5 -13 -31 0
2 3 14 0
-2 -3 -14 0
4 14 17 0
-4 -14 -17 0
5 14 32 0
-5 -14 -32 0
3 15 0
-3 -15 0
4 15 18 0
-4 -15 -18 0
5 15 33 0
-5 -15 -33 0
3 4 16 0
-3 -4 -16 0
4 16 19 0
-4 -16 -19 0
5 16 34 0
-5 -16 -34 0
3 5 17 0
-3 -5 -17 0
4 17 20 0
-4 -17 -20 0
5 17 35 0
-5 -17 -35 0
3 6 18 0
-3 -6 -18 0
4 18 21 0
-4 -18 -21 0
5 18 36 0
-5 -18 -36 0
3 7 19 0
-3 -7 -19 0
4 19 22 0
-4 -19 -22 0
5 19 37 0
-5 -19 -37 0
3 8 20 0
-3 -8 -20 0
4 20 23 0
-4 -20 -23 0
3 9 21 0
-3 -9 -21 0
4 21 24 0
-4 -21 -24 0
3 10 22 0
-3 -10 -22 0
4 22 25 0
-4 -22 -25 0
3 11 23 0
-3 -11 -23 0
4 23 26 0
-4 -23 -26 0
3 12 24 0
-3 -12 -24 0
4 24 27 0
-4 -24 -27 0
3 13 25 0
-3 -13 -25 0
4 25 28 0
-4 -25 -28 0
3 14 26 0
-3 -14 -26 0
4 26 29 0
-4 -26 -29 0
3 15 27 0
-3 -15 -27 0
4 27 30 0
-4 -27 -30 0
1 2 28 0
-1 -2 -28 0
3 16 28 0
-3 -16 -28 0
4 28 31 0
-4 -28 -31 0
2 29 0
-2 -29 0
3 17 29 0
-3 -17 -29 0
4 29 32 0
-4 -29 -32 0
2 3 30 0
-2 -3 -30 0
3 18 30 0
-3 -18 -30 0
4 30 33 0
-4 -30 -33 0
2 4 31 0
-2 -4 -31 0
3 19 31 0
-3 -19 -31 0
4 31 34 0
-4 -31 -34 0
2 5 32 0
-2 -5 -32 0
3 20 32 0
-3 -20 -32 0
4 32 35 0
-4 -32 -35 0
2 6 33 0
-2 -6 -33 0
3 21 33 0
-3 -21 -33 0
4 33 36 0
-4 -33 -36 0
2 7 34 0
-2 -7 -34 0
3 22 34 0
-3 -22 -34 0
4 34 37 0
-4 -34 -37 0
2 8 35 0
-2 -8 -35 0
3 23 35 0
-3 -23 -35 0
2 9 36 0
-2 -9 -36 0
3 24 36 0
-3 -24 -36 0
2 10 37 0
-2 -10 -37 0
3 25 37 0
-3 -25 -37 0
