certificates/rado_a15_c57_N37.drat
-34 -36 -37 0
-4 34 -37 0
-24 -35 4 -36 0
-6 -35 4 -36 0
-35 -36 4 0
d -24 -35 4 -36 0
6 4 -36 0
-36 -37 0
d -34 -36 -37 0
-6 4 36 0
4 -37 0
-4 -37 0
d -34 -4 -37 0
d -4 34 -37 0
-37 0
34 0
-6 36 -4 0
-2 -3 -4 0
2 -4 0
-4 0
1 0
7 0
6 0
0
